WARNING: for repeatability, setting FPU to use double precision
============================[ Problem Statistics ]=============================
|                                                                             |
|  Number of variables:           100                                         |
|  Number of clauses:             449                                         |
|  Parse time:                   0.00 s                                       |
|  Simplification time:          0.00 s                                       |
|                                                                             |
============================[ Search Statistics ]==============================
| Conflicts |          ORIGINAL         |          LEARNT          | Progress |
|           |    Vars  Clauses Literals |    Limit  Clauses Lit/Cl |          |
===============================================================================
|       100 |     100      447     1339 |      163      100      8 |  0.010 % |
===============================================================================
restarts              : 3
conflicts             : 234            (67846 /sec)
decisions             : 320            (0.00 % random) (92781 /sec)
propagations          : 5426           (1573210 /sec)
conflict literals     : 1584           (16.68 % deleted)
Memory used           : 13.00 MB
CPU time              : 0.003449 s

SATISFIABLE
